25 50
1 2 4
1 6 1
2 3 3
2 7 1
3 4 3
3 8 4
4 5 5
4 9 2
5 10 3
6 7 4
6 11 2
7 8 5
7 12 5
8 9 2
8 13 1
9 10 5
9 14 2
10 15 2
11 12 1
11 16 4
12 13 5
12 17 5
13 14 1
13 18 2
14 15 2
14 19 4
15 20 1
16 17 2
16 21 4
17 18 1
17 22 4
18 19 4
18 23 5
19 20 3
19 24 2
20 25 3
21 22 3
22 23 2
23 24 5
24 25 5
1 21 5
2 22 3
3 23 3
4 24 1
5 25 3
1 5 3
6 10 5
11 15 4
16 20 4
21 25 2
